12
0 6 52 48 36 68 24 60 34 29 24 4 
80 0 24 56 61 41 58 81 8 78 42 81 
26 17 0 17 46 49 4 72 23 83 8 44 
39 68 91 0 99 19 93 31 85 53 27 36 
62 22 25 25 0 82 18 78 78 49 74 71 
33 68 91 76 98 0 15 80 20 39 77 51 
74 47 65 56 85 6 0 94 55 67 78 93 
77 42 49 97 76 43 67 0 63 42 83 53 
27 95 19 26 71 46 47 9 0 23 62 79 
31 17 41 24 58 50 8 8 14 0 24 28 
84 19 93 5 54 88 68 53 12 23 0 11 
99 83 100 97 44 47 26 16 94 2 75 0 
